500
[100,101,104,105,106,107,108,109,110,111,112,113,114,115,116,117,118,119,120,121,122,123,124,125,126,127,128,129,131,132,134,135,136,137,138,139,140,141,142,143,144,147,148,149,150,151,152,153,154,155,156,157,158,161,162,164,165,166,167,168,169,170,171,172,174,175,176,177,178,179,180,181,184,185,186,188,189,191,193,194,196,197,198,199,200,201,202,203,204,205,206,207,208,209,210,212,213,214,216,217,218,219,220,221,222,223,224,225,226,227,228,229,230,231,232,233,234,235,236,237,238,239,240,241,242,243,244,245,246,247,248,249,250,251,253,254,255,256,257,259,261,262,263,264,265,266,267,268,270,271,272,273,274,275,276,277,278,279,280,281,282,283,284,285,286,287,288,289,290,291,292,293,294,295,296,297,298,300,301,302,303,304,305,306,307,308,309,310,311,312,314,315,317,318,319,320,321,322,323,325,326,327,328,329,330,331,333,334,335,337,338,339,340,342,344,345,346,347,348,349,350]
[1,1,3,1,1,2,2,2,2,2,2,4,2,2,4,1,1,3,2,1,1,2,4,4,2,2,1,3,2,3,1,2,4,2,2,2,2,1,2,3,1,3,1,2,1,3,2,2,2,5,2,2,1,4,4,4,1,4,3,2,1,2,1,1,4,4,3,3,2,2,1,2,2,1,1,3,4,2,2,1,1,2,4,2,1,3,5,2,1,6,1,5,1,4,1,2,2,4,3,4,1,3,2,3,6,1,2,3,2,2,1,3,1,4,2,1,1,2,1,4,3,2,2,2,2,4,4,2,3,4,2,3,1,3,1,3,1,3,3,4,2,2,1,2,2,2,2,4,1,3,3,2,1,5,2,2,3,2,4,3,2,1,1,1,2,2,3,3,2,2,1,1,4,1,1,1,1,1,1,1,5,2,1,2,2,3,1,2,2,2,2,2,6,3,1,3,4,2,2,1,2,5,2,1,1,1,5,2,1,1,1,2,5,3,1,1,3,2,1,3,3]
